<?xml version="1.0" encoding="UTF-8"?><osil xmlns="os.optimizationservices.org" xmlns:xsi="http://www.w3.org/2001/XMLSchema-instance" xsi:schemaLocation="os.optimizationservices.org http://www.optimizationservices.org/schemas/2.0/OSiL.xsd"><instanceHeader><name>st_miqp2</name></instanceHeader><instanceData><variables numberOfVariables="4"><var name="i1" type="I" ub="1"/><var name="i2" type="I" ub="1"/><var name="i3" type="I" ub="1e10"/><var name="i4" type="I" ub="1e10"/></variables><objectives><obj maxOrMin="min" name="defObj_objvar" numberOfObjCoef="4"><coef idx="0">4</coef><coef idx="1">5</coef><coef idx="2">-3</coef><coef idx="3">-10</coef></obj></objectives><constraints numberOfConstraints="3"><con name="e1" ub="0"/><con name="e2" ub="0"/><con name="e3" lb="5"/></constraints><linearConstraintCoefficients numberOfValues="6"><start><el mult="4" incr="2">0</el></start><colIdx><el>0</el><el>2</el><el>1</el><el>3</el><el>2</el><el>3</el></colIdx><value><el>-10</el><el>1</el><el>-20</el><el mult="3">1</el></value></linearConstraintCoefficients><quadraticCoefficients numberOfQuadraticTerms="2"><qTerm idx="-1" idxOne="2" idxTwo="2" coef="4"/><qTerm idx="-1" idxOne="3" idxTwo="3" coef="2"/></quadraticCoefficients></instanceData></osil>